0 117 
1 124 
2 127 
3 128 
4 128 
5 134 
6 131 
7 131 
8 130 
9 130 
10 128 
11 128 
12 123 
13 120 
14 119 
15 117 
16 113 
17 114 
18 113 
19 112 
20 108 
21 105 
22 100 
23 100 
24 96 
25 97 
26 95 
27 97 
28 97 
29 92 
30 89 
31 86 
32 87 
33 87 
34 86 
35 84 
36 85 
37 83 
38 82 
39 81 
40 75 
41 72 
42 73 
43 70 
44 69 
45 68 
46 68 
47 66 
48 65 
49 64 
50 63 
51 62 
52 62 
53 63 
54 63 
55 60 
56 56 
57 58 
58 59 
59 58 
60 57 
61 58 
62 57 
63 56 
64 56 
65 57 
66 56 
67 54 
68 53 
69 51 
70 50 
71 48 
72 46 
73 43 
74 42 
75 43 
76 43 
77 40 
78 38 
79 37 
80 35 
81 34 
82 32 
83 32 
84 32 
85 28 
86 24 
87 21 
88 23 
89 26 
90 23 
91 22 
92 21 
93 20 
94 19 
95 18 
96 17 
97 15 
98 14 
99 13 
100 13 
101 12 
102 10 
103 10 
104 9 
105 9 
106 7 
107 5 
108 4 
109 3 
110 2 
111 1 
112 1 
113 1 
114 0 
115 0 

